
Gurobi 11.0.3 (linux64) logging started Sat Nov 23 07:48:37 2024

Set parameter LogFile to value "/home/yihong/Coding/OR_SUC/SUC_results_bigM100000_thread4/case24_ieee_rts_theta0.5_epsilon0.05_gurobi_seed130000_num_gen100_N_WDR150_load_scaling_factor1_exact_T24quadra_cost.txt"
Set parameter TimeLimit to value 3600
Gurobi Optimizer version 11.0.3 build v11.0.3rc0 (linux64 - "Ubuntu 20.04.6 LTS")

CPU model: AMD EPYC 7532 32-Core Processor, instruction set [SSE2|AVX|AVX2]
Thread count: 64 physical cores, 128 logical processors, using up to 4 threads

Optimize a model with 61503 rows, 30061 columns and 1734438 nonzeros
Model fingerprint: 0x2b41b0b1
Model has 2400 quadratic constraints
Variable types: 27511 continuous, 2550 integer (2550 binary)
Coefficient statistics:
  Matrix range     [1e-04, 1e+05]
  QMatrix range    [2e-03, 8e-03]
  QLMatrix range   [7e-01, 6e+01]
  Objective range  [1e+00, 1e+00]
  Bounds range     [1e+00, 1e+00]
  RHS range        [1e+00, 1e+05]
Presolve removed 50653 rows and 12719 columns
Presolve time: 0.50s
Presolved: 10850 rows, 17342 columns, 67665 nonzeros
Presolved model has 2400 quadratic constraint(s)
Variable types: 14809 continuous, 2533 integer (2533 binary)

Root relaxation: objective 4.761318e+04, 8533 iterations, 0.27 seconds (0.40 work units)

    Nodes    |    Current Node    |     Objective Bounds      |     Work
 Expl Unexpl |  Obj  Depth IntInf | Incumbent    BestBd   Gap | It/Node Time

     0     0 47613.1779    0   38          - 47613.1779      -     -    0s
     0     0 321570.063    0  716          - 321570.063      -     -    1s
     0     0 348007.485    0  684          - 348007.485      -     -    1s
     0     0 606984.728    0  656          - 606984.728      -     -    2s
     0     0 607061.182    0  378          - 607061.182      -     -    2s
     0     0 607518.085    0  267          - 607518.085      -     -    2s
     0     0 607521.989    0  261          - 607521.989      -     -    2s
     0     0 607521.989    0  261          - 607521.989      -     -    2s
     0     0 607524.982    0  261          - 607524.982      -     -    2s
     0     0 607525.272    0  261          - 607525.272      -     -    2s
     0     2 607525.272    0  261          - 607525.272      -     -    4s
    23    28 607618.008    5  283          - 607546.696      -  44.0    5s
H  381   388                    607599.04740 607546.696  0.01%  13.2    8s
*  381   388             112    607599.04740 607546.696  0.01%  13.2    8s

Cutting planes:
  Gomory: 4
  Implied bound: 319
  MIR: 175
  Flow cover: 93
  RLT: 5
  Relax-and-lift: 5

Explored 393 nodes (30518 simplex iterations) in 8.55 seconds (12.83 work units)
Thread count was 4 (of 128 available processors)

Solution count 2: 607599 607599 

Optimal solution found (tolerance 1.00e-03)
Warning: max constraint violation (2.7898e-07) exceeds tolerance
Best objective 6.075990473972e+05, best bound 6.075466956545e+05, gap 0.0086%
